Problem:    
Rows:       260
Columns:    89 (72 integer, 72 binary)
Non-zeros:  812
Status:     INTEGER OPTIMAL
Objective:  value = 8.642557 (MINimum)

   No.   Row name        Activity     Lower bound   Upper bound
------ ------------    ------------- ------------- -------------
     1 r.5                   1008.64             0               
     2 r.6                  -998.263      -998.354               
     3 r.7                   8.64256             0               
     4 r.8                   3.68278      -991.901               
     5 r.9                   1008.64             0               
     6 r.10                 -996.637      -998.374               
     7 r.11                  8.64256             0               
     8 r.12                  3.68278      -991.178               
     9 r.13                  8.64256             0               
    10 r.14                  3.68278      -999.797               
    11 r.15                  1008.64             0               
    12 r.16                 -997.944      -998.478               
    13 r.17                  1008.64             0               
    14 r.18                 -996.317       -999.68               
    15 r.19                  8.64256             0               
    16 r.20                  3.68278      -997.701               
    17 r.21                  8.64256             0               
    18 r.22                  6.02612      -999.356               
    19 r.23                  1008.64             0               
    20 r.24                 -993.974       -996.03               
    21 r.25                  1008.64             0               
    22 r.26                 -999.909      -999.909               
    23 r.27                  8.64256             0               
    24 r.28                   0.0912      -998.453               
    25 r.29                  1008.64             0               
    26 r.30                 -991.357       -995.04               
    27 r.31                  8.64256             0               
    28 r.32                  8.64256      -979.428               
    29 r.33                  8.64256             0               
    30 r.34                  8.64256      -998.714               
    31 r.35                  1008.64             0               
    32 r.36                 -991.357      -997.384               
    33 r.37                        1             1             = 
    34 r.38                        1             1             = 
    35 r.39                        1             1             = 
    36 r.40                        1             1             = 
    37 r.41                        1             1             = 
    38 r.42                        1             1             = 
    39 r.43                        1             1             = 
    40 r.44                        1             1             = 
    41 r.45                        2             2               
    42 r.46                       -2         -1001               
    43 r.47                 -998.374      -998.374               
    44 r.48                     1000             2               
    45 r.49                    -1000         -1001               
    46 r.50                     2000      -991.178               
    47 r.51                     1001             2               
    48 r.52                    -1001         -1001               
    49 r.53                  2001.95      -999.797               
    50 r.54                     1001             2               
    51 r.55                    -1001         -1001               
    52 r.56                  1998.37      -998.478               
    53 r.57                        2             2               
    54 r.58                       -2         -1001               
    55 r.59                 -998.054       -999.68               
    56 r.60                     1000             2               
    57 r.61                    -1000         -1001               
    58 r.62                     2000      -997.701               
    59 r.63                     1001             2               
    60 r.64                    -1001         -1001               
    61 r.65                  2004.29      -999.356               
    62 r.66                     1001             2               
    63 r.67                    -1001         -1001               
    64 r.68                  2002.34       -996.03               
    65 r.69                 -998.354      -998.354               
    66 r.70                  3.59158      -991.901               
    67 r.71                 -998.354      -998.354               
    68 r.72                  3.59158      -991.901               
    69 r.73                 -993.095       -995.04               
    70 r.74                  6.90549      -979.428               
    71 r.75                  -995.04       -995.04               
    72 r.76                  4.95978      -979.428               
    73 r.77                  6.90549      -998.714               
    74 r.78                 -993.095      -997.384               
    75 r.79                  4.95978      -998.714               
    76 r.80                  -995.04      -997.384               
    77 r.81                        2             2               
    78 r.82                       -2         -1001               
    79 r.83                  998.374       1.64587               
    80 r.84                     1000             2               
    81 r.85                    -1000         -1001               
    82 r.86                     2000       8.09856               
    83 r.87                     1001             2               
    84 r.88                    -1001         -1001               
    85 r.89                  2000.32      -999.797               
    86 r.90                     1001             2               
    87 r.91                    -1001         -1001               
    88 r.92                  1998.37      -998.478               
    89 r.93                        2             2               
    90 r.94                       -2         -1001               
    91 r.95                  -999.68       -999.68               
    92 r.96                     1000             2               
    93 r.97                    -1000         -1001               
    94 r.98                     2000      -997.701               
    95 r.99                     1001             2               
    96 r.100                   -1001         -1001               
    97 r.101                 2002.66      -999.356               
    98 r.102                    1001             2               
    99 r.103                   -1001         -1001               
   100 r.104                 2002.34       -996.03               
   101 r.105                -996.728      -998.374               
   102 r.106                 3.59158      -991.178               
   103 r.107                -996.728      -998.374               
   104 r.108                 3.59158      -991.178               
   105 r.109                 -994.72       -995.04               
   106 r.110                 5.27983      -979.428               
   107 r.111                 -995.04       -995.04               
   108 r.112                 4.95978      -979.428               
   109 r.113                    1001             2               
   110 r.114                   -1001         -1001               
   111 r.115                 2005.28      -998.714               
   112 r.116                    1001             2               
   113 r.117                   -1001         -1001               
   114 r.118                 2004.96      -997.384               
   115 r.119                    1001             2               
   116 r.120                   -1001         -1001               
   117 r.121                 1998.05       1.64587               
   118 r.122                    1001             2               
   119 r.123                   -1001         -1001               
   120 r.124                 2001.63       8.09856               
   121 r.125                    1001             2               
   122 r.126                   -1001         -1001               
   123 r.127                 1999.68       1.62566               
   124 r.128                    1001             2               
   125 r.129                   -1001         -1001               
   126 r.130                 2001.63        8.8215               
   127 r.131                    1001             2               
   128 r.132                   -1001         -1001               
   129 r.133                    2000       -999.68               
   130 r.134                    1001             2               
   131 r.135                   -1001         -1001               
   132 r.136                 2001.63      -997.701               
   133 r.137                    1000             2               
   134 r.138                   -1000         -1001               
   135 r.139                 2002.34      -999.356               
   136 r.140                       2             2               
   137 r.141                      -2         -1001               
   138 r.142                 -996.03       -996.03               
   139 r.143                 3.59158      -999.797               
   140 r.144                -998.035      -998.478               
   141 r.145                 3.59158      -999.797               
   142 r.146                -998.035      -998.478               
   143 r.147                 -995.04       -995.04               
   144 r.148                 4.95978      -979.428               
   145 r.149                -993.414       -995.04               
   146 r.150                 6.58634      -979.428               
   147 r.151                 4.95978      -998.714               
   148 r.152                 -995.04      -997.384               
   149 r.153                 6.58634      -998.714               
   150 r.154                -993.414      -997.384               
   151 r.155                       2             2               
   152 r.156                      -2         -1001               
   153 r.157                 998.054       1.64587               
   154 r.158                    1000             2               
   155 r.159                   -1000         -1001               
   156 r.160                    2000       8.09856               
   157 r.161                       2             2               
   158 r.162                      -2         -1001               
   159 r.163                  999.68       1.62566               
   160 r.164                    1000             2               
   161 r.165                   -1000         -1001               
   162 r.166                    2000        8.8215               
   163 r.167                    1001             2               
   164 r.168                   -1001         -1001               
   165 r.169                    2000        0.2032               
   166 r.170                    1001             2               
   167 r.171                   -1001         -1001               
   168 r.172                 1998.37       1.52161               
   169 r.173                    1001             2               
   170 r.174                   -1001         -1001               
   171 r.175                 2002.34      -999.356               
   172 r.176                    1001             2               
   173 r.177                   -1001         -1001               
   174 r.178                 2002.34       -996.03               
   175 r.179                -996.408       -999.68               
   176 r.180                 3.59158      -997.701               
   177 r.181                -996.408       -999.68               
   178 r.182                 3.59158      -997.701               
   179 r.183                 -995.04       -995.04               
   180 r.184                 4.95978      -979.428               
   181 r.185                 -995.04       -995.04               
   182 r.186                 4.95978      -979.428               
   183 r.187                    1001             2               
   184 r.188                   -1001         -1001               
   185 r.189                 2004.96      -998.714               
   186 r.190                    1001             2               
   187 r.191                   -1001         -1001               
   188 r.192                 2004.96      -997.384               
   189 r.193                    1001             2               
   190 r.194                   -1001         -1001               
   191 r.195                 1995.71       1.64587               
   192 r.196                    1001             2               
   193 r.197                   -1001         -1001               
   194 r.198                 1997.66       8.09856               
   195 r.199                    1001             2               
   196 r.200                   -1001         -1001               
   197 r.201                 1997.34       1.62566               
   198 r.202                    1001             2               
   199 r.203                   -1001         -1001               
   200 r.204                 1997.66        8.8215               
   201 r.205                    1000             2               
   202 r.206                   -1000         -1001               
   203 r.207                 1997.66        0.2032               
   204 r.208                       2             2               
   205 r.209                      -2         -1001               
   206 r.210                  996.03       1.52161               
   207 r.211                    1001             2               
   208 r.212                   -1001         -1001               
   209 r.213                 1997.66      0.320056               
   210 r.214                    1001             2               
   211 r.215                   -1001         -1001               
   212 r.216                 1997.66       2.29927               
   213 r.217                 5.93492      -999.356               
   214 r.218                -994.065       -996.03               
   215 r.219                 5.93492      -999.356               
   216 r.220                -994.065       -996.03               
   217 r.221                    1001             2               
   218 r.222                   -1001         -1001               
   219 r.223                 2002.62       -995.04               
   220 r.224                    1001             2               
   221 r.225                   -1001         -1001               
   222 r.226                 2002.62      -979.428               
   223 r.227                 2.61644      -998.714               
   224 r.228                -997.384      -997.384               
   225 r.229                 2.61644      -998.714               
   226 r.230                -997.384      -997.384               
   227 r.231                -991.449       -995.04               
   228 r.232                 8.55136      -979.428               
   229 r.233                -991.449       -995.04               
   230 r.234                 8.55136      -979.428               
   231 r.235                    1001             2               
   232 r.236                   -1001         -1001               
   233 r.237                 1997.38        0.6437               
   234 r.238                    1001             2               
   235 r.239                   -1001         -1001               
   236 r.240                 1997.38        3.9699               
   237 r.241                    1001             2               
   238 r.242                   -1001         -1001               
   239 r.243                    2000      -998.714               
   240 r.244                    1001             2               
   241 r.245                   -1001         -1001               
   242 r.246                    2000      -997.384               
   243 r.247                    1001             2               
   244 r.248                   -1001         -1001               
   245 r.249                 1994.72       1.62566               
   246 r.250                    1001             2               
   247 r.251                   -1001         -1001               
   248 r.252                 1995.04        8.8215               
   249 r.253                    1001             2               
   250 r.254                   -1001         -1001               
   251 r.255                 1995.04      0.320056               
   252 r.256                    1001             2               
   253 r.257                   -1001         -1001               
   254 r.258                 1995.04       2.29927               
   255 r.259                    1001             2               
   256 r.260                   -1001         -1001               
   257 r.261                    2000       4.95978               
   258 r.262                    1001             2               
   259 r.263                   -1001         -1001               
   260 r.264                    2000       20.5723               

   No. Column name       Activity     Lower bound   Upper bound
------ ------------    ------------- ------------- -------------
     1 tt                    8.64256             0               
     2 s_1_1        *              1             0             1 
     3 t_1_1                 6.90549             0               
     4 s_2_1        *              0             0             1 
     5 t_2_1                 4.95978             0               
     6 s_1_2        *              1             0             1 
     7 t_1_2                 5.27983             0               
     8 s_2_2        *              0             0             1 
     9 t_2_2                 4.95978             0               
    10 s_1_3        *              0             0             1 
    11 t_1_3                 4.95978             0               
    12 s_2_3        *              1             0             1 
    13 t_2_3                 6.58634             0               
    14 s_1_4        *              1             0             1 
    15 t_1_4                 4.95978             0               
    16 s_2_4        *              0             0             1 
    17 t_2_4                 4.95978             0               
    18 s_1_5        *              0             0             1 
    19 t_1_5                 2.61644             0               
    20 s_2_5        *              1             0             1 
    21 t_2_5                 2.61644             0               
    22 s_1_6        *              1             0             1 
    23 t_1_6                 8.55136             0               
    24 s_2_6        *              0             0             1 
    25 t_2_6                 8.55136             0               
    26 s_1_7        *              1             0             1 
    27 t_1_7                       0             0               
    28 s_2_7        *              0             0             1 
    29 t_2_7                       0             0               
    30 s_1_8        *              0             0             1 
    31 t_1_8                       0             0               
    32 s_2_8        *              1             0             1 
    33 t_2_8                       0             0               
    34 r_1_1_2      *              0             0             1 
    35 u_1_1_2      *              1             0             1 
    36 r_2_1_2      *              1             0             1 
    37 u_2_1_2      *              0             0             1 
    38 r_1_1_3      *              1             0             1 
    39 u_1_1_3      *              0             0             1 
    40 r_2_1_3      *              1             0             1 
    41 u_2_1_3      *              0             0             1 
    42 r_1_1_4      *              0             0             1 
    43 u_1_1_4      *              1             0             1 
    44 r_2_1_4      *              1             0             1 
    45 u_2_1_4      *              0             0             1 
    46 r_1_1_5      *              1             0             1 
    47 u_1_1_5      *              0             0             1 
    48 r_2_1_5      *              1             0             1 
    49 u_2_1_5      *              0             0             1 
    50 r_1_2_3      *              1             0             1 
    51 u_1_2_3      *              0             0             1 
    52 r_2_2_3      *              1             0             1 
    53 u_2_2_3      *              0             0             1 
    54 r_1_2_4      *              0             0             1 
    55 u_1_2_4      *              1             0             1 
    56 r_2_2_4      *              1             0             1 
    57 u_2_2_4      *              0             0             1 
    58 r_1_2_5      *              1             0             1 
    59 u_1_2_5      *              0             0             1 
    60 r_2_2_5      *              1             0             1 
    61 u_2_2_5      *              0             0             1 
    62 r_1_2_8      *              1             0             1 
    63 u_1_2_8      *              0             0             1 
    64 r_2_2_8      *              1             0             1 
    65 u_2_2_8      *              0             0             1 
    66 r_1_3_4      *              1             0             1 
    67 u_1_3_4      *              0             0             1 
    68 r_2_3_4      *              1             0             1 
    69 u_2_3_4      *              0             0             1 
    70 r_1_3_5      *              1             0             1 
    71 u_1_3_5      *              0             0             1 
    72 r_2_3_5      *              0             0             1 
    73 u_2_3_5      *              1             0             1 
    74 r_1_4_5      *              1             0             1 
    75 u_1_4_5      *              0             0             1 
    76 r_2_4_5      *              1             0             1 
    77 u_2_4_5      *              0             0             1 
    78 r_1_4_8      *              1             0             1 
    79 u_1_4_8      *              0             0             1 
    80 r_2_4_8      *              1             0             1 
    81 u_2_4_8      *              0             0             1 
    82 r_1_5_7      *              1             0             1 
    83 u_1_5_7      *              0             0             1 
    84 r_2_5_7      *              1             0             1 
    85 u_2_5_7      *              0             0             1 
    86 r_1_7_8      *              1             0             1 
    87 u_1_7_8      *              0             0             1 
    88 r_2_7_8      *              1             0             1 
    89 u_2_7_8      *              0             0             1 

Integer feasibility conditions:

KKT.PE: max.abs.err = 2.27e-13 on row 64
        max.rel.err = 5.68e-17 on row 194
        High quality

KKT.PB: max.abs.err = 0.00e+00 on row 0
        max.rel.err = 0.00e+00 on row 0
        High quality

End of output
